NAME: tsp30-23
TYPE: TSP
DIMENSION: 30
EDGE_WEIGHT_TYPE: EUC_2D
NODE_COORD_SECTION
0 84 4
1 33 70
2 38 79
3 7 99
4 58 23
5 61 59
6 89 96
7 1 20
8 6 27
9 57 9
10 50 55
11 18 14
12 82 18
13 73 89
14 58 69
15 98 78
16 37 83
17 12 65
18 1 93
19 19 13
20 55 9
21 14 14
22 55 5
23 40 99
24 49 26
25 4 73
26 8 27
27 97 8
28 17 27
29 79 20
EOF